p td 29 87
4 1
6 2
7 5
9 3
9 2
10 5
10 1
11 6
11 5
12 5
13 1
13 6
14 10
14 11
14 2
14 5
15 10
15 9
15 3
16 7
16 2
16 11
17 10
17 11
17 3
17 15
17 5
17 7
17 12
18 3
18 12
18 5
19 7
19 12
20 16
20 15
20 7
20 11
20 12
21 17
22 10
22 19
22 12
22 9
22 4
22 11
23 16
23 18
23 14
23 7
23 13
24 22
24 15
24 7
24 20
25 14
25 24
25 21
25 6
26 9
26 5
26 7
26 10
26 15
26 16
26 11
26 4
27 4
27 10
27 9
27 20
27 2
27 19
27 26
27 18
27 5
28 23
28 14
28 24
28 2
28 9
29 24
29 27
29 5
29 21
29 15
29 22
